
50
126943

7821 6821
1917 917
7179 6179
9420 8420
9346 8346
6151 5151
7311 6311
4693 3693
6281 5281
2079 1079
7830 6830
7007 6007
3820 2820
4786 3786
8362 7362
5439 4439
10597 9597
10713 9713
9384 8384
1911 911
1752 752
3886 2886
4612 3612
8050 7050
9269 8269
6627 5627
7392 6392
6731 5731
1341 341
6267 5267
3133 2133
5170 4170
1088 88
7558 6558
10103 9103
1687 687
6801 5801
1235 235
4519 3519
2593 1593
9606 8606
8281 7281
9966 8966
3180 2180
8189 7189
7995 6995
6107 5107
10162 9162
7250 6250
3829 2829
